00:00.0 clingo version 5.5.1
00:00.1 Reading from ...ols/../encodings/CTW_nat_optimal_V2.lp ...
30:00.67 UNKNOWN
30:00.187 
30:00.195 TIME LIMIT   : 1
30:00.197 Models       : 0+
30:00.197 Calls        : 1
30:00.200 Time         : 1800.102s (Solving: 0.00s 1st Model: 0.00s Unsat: 0.00s)
30:00.201 CPU Time     : 111.412s
